3 45 54 44 63 71 9 65 72 53 41 13 38 60 62 32 14 51 76 64 1 6 39 33 43 47 8 12 24 75 55 19 25 23 49 68 35 48 57 22 70 29 11 4 2 46 18 50 59 42 10 67 20 37 73 58 69 17 16 66 56 31 5 27 40 15 28 34 21 0 74 36 26 61 52 30 7 